     60      2     13    356     19
     33     45
     51     46     27     23     42      3     53     47     54     38     52     45     27      5     18     18      6     51     57     34     41     23     45     29     24     42      1     28     55     35     31     11     47     35     14      1     18     10     57      8     14     11     31     41     59     46      0     27     37     50     39      1     30     40     35     27     19     12     38     13     56      4      4     47     39     29     10      7     57     40     31     15     30     42     27     25     10     41      6     48     17     56      7     30     51     10     49     21     50     32     30     20     37     17     39      5      2     46     20     19     47     14     28     38     18     29     24     40     52     46     27     32     59     22     58     45     14     10     47     27     48     38     29     15     28     27     44      3     53     28     31     14     59     44      7     20     24     10      3     33     32     50     30     26     54     59      6     28     35     52     12     24     45     44     10     33     31     37     29      6     53     41     58     39     42      9     30     44      3     41     21     35     33     34     50     18     27     58      0     28     44     55     47     54     11     53     19     56     55     50     36     42     33     11     22     59     29     55     10     35      7     56     31     39     13     16     18     17     17     30     48     28      0     23     27     33      0     18     29      6     39     43     50     59      3      8      2     31     38     33     55     46     50     38     25      5     52      4     19      5     49     28     54      2     13     57     47     30     46     12     24     44      2      3     58     50     20     43     30     44     53     11     55     47     15     45     52     57     37     35     12     41     14     38     44     37     56      7     49     53      8     13     47     55     15     28     54     51     34      6     10     18     44     11     12     51     25     27     48      8     19      5     24     47      7     56     28     50     57     48     26      1     30     58     21     10      0      1      2     17     33      9     55      4     14      9     31     41     16     34     26     59     52     38     42     10     36     30     47      1     45      3     14     27     57     20     54     59     32     16      4     59     42     52     10     38     31      6     52     19     33     46      8     35     25     51     39     45     33     40     18     28     11     17     52      3     36     56     18     11      9      8     40     14     30      7     15     45     16     26     48     41     52     50      4     55     25     48     59     13      1     54      0     20      7     13     26     34      1     44     38     38     28     39     44     52     46     10     55      6     59      9      8     54     47      4     28     11     17     45     44     46      9      3      6     55     10     59     49      0     47     57     15      3      4     54     58     42     40     52     31     20     10      3     16     55     18     13      5     43     36     50      5     45     31      1     20     27      6      2      8     50     53     10     45      3     11     48     44      2     11     35     47      4     44     22     34     49     52     25     36     53     42     46     16     38     40     13     15     32      6     32     18     27     30     43     29      9     40     20     27     31     47     35     37     13     23     20     11     45
    -53     76    -60    125    215    185    -49    103    192    -55     47     33     90     87     12     -2     48     65     59     67     77     70     24      2      8     50     41     66    -18     25     -6    -15     12    -18     21     29     65     65     84     86      6     77     70     61     22     50     17     69     43    -16     41     77     42     42     -7     89      7     22     29     48     41     69     60     -3     90    -22     58     73     78     -3     56     65     85    -11      9      7     67    -14     40     -8
      8     15     11	    362     67     10     13      9      0      0      0      0      0      0      0      0      0      0      0     12      0      0      0      0      0      0     84      0    229    223    -18      0     66      0      0      0      0      0      0      0      0      0      0     91      0      0      0      0      0      0      0      0    -29      0    106      0      0      0      0      0      0     61      0      0     22      0      0      0
      6     15     14	    321    110     12     12      5      0      0      0      0      0      0     61      0    181      0      0      0      0      0      0      0      0      0      0      0      0      0      0      0      0      0      0     74      0    107      0      0    116      0      0      0     56    222      0     10      0      0      0      0      0      0      0      0      0      0      0      0      0      0      0      0    -26      0      0      0
     11     15     12	    117     74     12     12      2      0      0      0      0      0      0      0      0      0      0     75      0      0      0     48      0      0      0      0      0      0      0      0      0      0     83      0      0      0      0    -13      0      0     12     74      0     93      0      0      0      0      0      0     29      0      0      0      0      0     15      0      0     23      0     76     81      0      2      0      0
      8     11     12	    344    185      8     13      2      0      0      0      0      0      0    208      0     72      0      0      0      0      0      0     -4      0      0      0      0      0      0      0      0      0      0    237     61      0      0      0      0      0      0      0      0      0     66     54      0      0      0      0      0      0      0      0    139      0      0      0      0      0      0    -46     87      0      0     99      0
     11     15     12	    152    103     11     11      1      0      0      0      0      0      0      0      0      0      0      0      0      0      0      0     -7      0      0      0      0      0      4      0      0      0      0      0      0      0     48      0      0    -22      0      0     30      0      0     40     32      0      0      0     79      0      0     98      0      0      0    -21      0      0     38      0     42      0      0      0      0
      7     13     15	    413    118      8      8      3      0      0      0      0      0      0      0      0      0      0     60      0    238    247      0      0      0      0      0    293    231      0      0      0      0      0      0      0      0      0    225      0      0      0    186      0      0     69      0      0     76      0    275      0      0      0      0      0      0      0      0    144      0      0      0      0      0      0      0      0
      6     12     10	    353    168     10     11      7      0     61      0    208      0      0      0    213      0      0      0      0     54      0    171    -41      0     23    203      0      0      0      0      0      0      0      0      0      0      0    -54      0      0      0      0      0      0      0      0      0      0      0    109      0      0      0      0      0      0      0    127      0      0      1      0      0      0      0      0      0
     12     12     15	    363    229     12     13      2      0      0      0      0      0      0    213      0      0      0      0      0      0      0    205      0      0      0      0      0      0    201    -17      0      0     27      0      0      0      0    -25      0      0      0      0      0      0      0      0      0      0      0      0      0      0      0      0      0      0      0      0      0      0     40      0      0      0     31      0      0
      6     10     14	    230    141      9      9     10      0    181      0     72      0      0      0      0      0      0    156      0      0      0      0      0      0      0      0      0     55      0     -2    171      0      0     24      0      0      0      0      0      0      0      0      0     42      0    -16      0      0    -29     74      0      0      0      0     50      0      0      0      0      0      0      0      0    -32      0      0      0
      9     11     12	    342    179     12     12      2      0      0      0      0      0      0      0      0      0      0    151      0      0      0      0      0      0      0      0      0      0      0      0      0      0      0      0      0      0    120      0      0      0      0      0      0      0      0     68      0      0    100     66      0      0      0      0      0      0      0      0      0      0      0      0      0      0      0     39    219
      7     12     11	    323    155     12     12      4      0      0     75      0      0     60      0      0    156    151      0      0      0      0      0     -3      0      0      0      0    111      0      0      0    -61      0    -35      0      0      0    166      0      0      0      0      0      0      0      0      0      0      0      0      0      0      0      0      0      0      0      0    -24      0      0      0      0      0    -31      0      0
      6     10     12	    442    135      9     11      2     12      0      0      0      0      0      0      0      0      0      0      0    329      0      0      0      0      0    101      0      0      0      0      0      0      0      0      0      0    198      0      0      0     16     23      0      0      0      0     93      0      0      0      0      0      0      0      0    128      0      0    155      0      0      0      0      0      0      0     44
     11     13     14	    415    104     12     13      2      0      0      0      0      0    238     54      0      0      0      0    329      0      0      0      0      0      0     11    309      0      0      0      0    -77      0      0     15    214      0      0      0      0     61      0      0      0      0      0      0      0      0     82      0      0      0    198      0    -58      0      0      0      0      0      0      0      0    -21      0      0
     12     10     12	    479    205     13     13      6      0      0      0      0      0    247      0      0      0      0      0      0      0      0      0      0      0      0      0      0      0      0      0      0      0      0    118     62      0      0      0      0      0      0      0      0      0      0      0    -32      0      0      0      0      0      0     16      0      0      0      0      0      0      0    193      0      0      0      0      0
      7     13     14	    419    284     10     10      8      0      0     48      0      0      0    171    205      0      0      0      0      0      0      0    166      0      0    327      0      0      0      0      0      0      0      0      0      0      0      0      0      0      0      0      0      0      0     71      0      0      0      0      0      0    155      0      0      0      0      0     80    -33      0      0      0     61      0      0      0
     11     11     14	    411    140     11     12      3      0      0      0     -4     -7      0    -41      0      0      0     -3      0      0      0    166      0    159      0      0      0    304      0      0      0      0      0    299      0      0      0      0      0      0      0      0      0      0      0     61      0      0      3      0      0      0      0      0      0      0      0      0      0      0      0      0      0      0      0      0      0
     10     10     11	    315    220     12     12      5      0      0      0      0      0      0      0      0      0      0      0      0      0      0      0    159      0      0      0      0      0      0      0      0      0      0      0     27    -43     85      0      0    204      0      0    171    156      0      0      0      0     17      0      0      0      0      0      0      0      0     99     35      0     33      0    -15      0      0      0    106
      8     14     13	    381    150      8     10      3      0      0      0      0      0      0     23      0      0      0      0      0      0      0      0      0      0      0      0     56      0      0    156      0      0      0      0     63      0    109    -50     66    192      0    216      0      0      0     17      0      0      0      0      0      0    193      0      0      0      0      0      0      0      0    202      0      0      0      0      0
     12     10     13	    482    211     13     13      5     84      0      0      0      0      0    203      0      0      0      0    101     11      0    327      0      0      0      0      0      0      0      0      0      0      0      0      0      0      0      0      0      0     53      0      0      0      0    -20      0      0      0      0      0      0      0      0      0      0      0      0      0      0      0      0      0      0      0    118      0
      8     13     14	    395    266     10     10      1      0      0      0      0      0    293      0      0      0      0      0      0    309      0      0      0      0     56      0      0      0      0      0    270      0      0      0      0      0      0      0      0      0      0      0      0      0      8      0      0      0      0      0      0      0      0      0    -53      0    214      0      0      0     57      0      0      0      0    104      0
     10     14     13	    446     85     13     13      6    229      0      0      0      0    231      0      0     55      0    111      0      0      0      0    304      0      0      0      0      0     73    208    200      0      0    -23      0     -5      0      0      0    -29      0      0      0      0      0      0      0      0      0    226      0    131      0      0      0      0      0      0      0    217      0      0      0      0      0      0      0
     12     10     14	    317     83     12     13     10    223      0      0      0      4      0      0    201      0      0      0      0      0      0      0      0      0      0      0      0     73      0      0    113      0      0      0      0      0     -6      0      0      0      0      0      0     95      0      0      0    -52      0     33      0    170    140      0      0      0      0      0      0      0      0      0      0      0      0      0      0
      7     10     12	    287    135     12     13      5    -18      0      0      0      0      0      0    -17     -2      0      0      0      0      0      0      0      0    156      0      0    208      0      0      0      0      0      0      0      0     45      0      0      0      0      0      0      0      0      0      0      0      0      0      0    118      0      0      0      0      0      0      0      0      0    -21      0      0      0      0     12
      7     15     14	    486    317     10     11      2      0      0      0      0      0      0      0      0    171      0      0      0      0      0      0      0      0      0      0    270    200    113      0      0      0    221    -72      0      0      0    355      0      0     84      0      0      0      0      0      0     19     60    238      0      0      0    211      0      0      0      0     48      0      0    -22      0     36      0      0      0
      8     14     14	    493    157     11     12      9     66      0      0      0      0      0      0      0      0      0    -61      0    -77      0      0      0      0      0      0      0      0      0      0      0      0      0      0     51      0      0      0      0      0      0      0      0      0      0      0      0      0      0      0      0      0      0      0      0      0      0      0     86    134      0      0      0      0      0      0      0
      9     12     12	    313    112     11     11     10      0      0     83      0      0      0      0     27      0      0      0      0      0      0      0      0      0      0      0      0      0      0      0    221      0      0      0      0      0      0      0      0      0      0      0      0      0      0      0      0     18      0      0      0      0      0      0      0      0      0    -32      0    228      0      0      0      0    130    -56    -54
      9     11     13	    464    183     10     11      4      0      0      0    237      0      0      0      0     24      0    -35      0      0    118      0    299      0      0      0      0    -23      0      0    -72      0      0      0      0      9    227      0      0    -24      0      0      0    147      0      0      0      0      0      0      0      0      0      0      0      0      0      0      0      0      0      0     98      0     90      0      0
      9     15     14	    118     76      9     11      5      0     74      0     61      0      0      0      0      0      0      0      0     15     62      0      0     27     63      0      0      0      0      0      0     51      0      0      0      0      0     19      0      0      0      0      0      0      0      0      0      0     29      0      0      0      0     50      0      0      0     52      0      7      0      0     26    -14      0      0     89
      6     13     11	    362    179      7      7      4      0      0      0      0      0      0      0      0      0      0      0      0    214      0      0      0    -43      0      0      0     -5      0      0      0      0      0      9      0      0      0      0      0      0      0      0      0      0      0      0    -17      0    -29      0      0     63      0      0      0      0      0    185      0      0      0      0      0    100      0      0      0
     12     10     15	    305    182     13     13      8      0    107      0      0     48      0      0      0      0    120      0    198      0      0      0      0     85    109      0      0      0     -6     45      0      0      0    227      0      0      0      0     58     21      0      0    -16     43      0     35      0     30      0      0      0      0      0      0      0      0      0      0      0      0      0      0      0      0      0      0      0
      6     10     10	    465    118      8      9      4      0      0    -13      0      0    225    -54    -25      0      0    166      0      0      0      0      0      0    -50      0      0      0      0      0    355      0      0      0     19      0      0      0      0      0     15    -21      0    -53      0     -3      0      0      0     36     49      0    -32      0      0      0      0    199      0      0      0      0     51      0    -26      0      0
      7     15     11	    402    149     12     13      7      0      0      0      0      0      0      0      0      0      0      0      0      0      0      0      0      0     66      0      0      0      0      0      0      0      0      0      0      0     58      0      0      0      0      0      0    195      0     49    120      0      0      0      0      0      0      0      0     26      0      0      0    -25      0      0      0      0      0      0      0
      8     15     10	    289    119     10     11     10      0    116      0      0    -22      0      0      0      0      0      0      0      0      0      0      0    204    192      0      0    -29      0      0      0      0      0    -24      0      0     21      0      0      0      0    136      0      0    -54      0     30      0      0      0      0      0     97      0      0      0      0      0    -35      0      0      0     96      0     44      0      0
      8     13     13	    110     58      8     13      6      0      0     12      0      0      0      0      0      0      0      0     16     61      0      0      0      0      0     53      0      0      0      0     84      0      0      0      0      0      0     15      0      0      0      0      0    -21      0      0      0      0      0      0      0      0      0      0      0      0     33      0      0      0      0     -4      0      0      0      0      0
     11     12     12	    494    130     13     13      6      0      0     74      0      0    186      0      0      0      0      0     23      0      0      0      0      0    216      0      0      0      0      0      0      0      0      0      0      0      0    -21      0    136      0      0    115      0      0      0      0     97      0     48      0      0    134    134      0      0      0      0     99      0      0      0      0      0     85      0      0
      7     15     13	    218    127      9     13      8     91      0      0      0     30      0      0      0      0      0      0      0      0      0      0      0    171      0      0      0      0      0      0      0      0      0      0      0      0    -16      0      0      0      0    115      0      0      0      0      0      0      0      0      0      0      0      0      0      0     98      0    -38     -8      0      0      0      0      0     60      0
      9     15     10	    402    125     10     13      1      0     56     93      0      0      0      0      0     42      0      0      0      0      0      0      0    156      0      0      0      0     95      0      0      0      0    147      0      0     43    -53    195      0    -21      0      0      0     45      0      0    -17      0      0      0    143      0      0      0      0      0      0     29      0      0      0      0      0      0      0      0
     10     10     13	    361    174     11     11      4      0    222      0     66      0     69      0      0      0      0      0      0      0      0      0      0      0      0      0      8      0      0      0      0      0      0      0      0      0      0      0      0    -54      0      0      0     45      0      0      0      0      0     59      0    -28    -23      0      0      0     77      0      0      0      0    -29     85      0     47      0      0
     10     13     12	    103     70     12     12      1      0      0      0     54     40      0      0      0    -16     68      0      0      0      0     71     61      0     17    -20      0      0      0      0      0      0      0      0      0      0     35     -3     49      0      0      0      0      0      0      0      0      0     34      0     74     66      0      0      0      0      0      0      0      0      0      0      0      0      0     26      0
      9     15     10	    177    103     11     11      2      0     10      0      0     32      0      0      0      0      0      0     93      0    -32      0      0      0      0      0      0      0      0      0      0      0      0      0      0    -17      0      0    120     30      0      0      0      0      0      0      0      0      3      0      0      0      0      0      0      0    105      0      0      0     15      0     92      0      0     98    101
     11     12     14	    268     81     11     13      3      0      0      0      0      0     76      0      0      0      0      0      0      0      0      0      0      0      0      0      0      0    -52      0     19      0     18      0      0      0     30      0      0      0      0     97      0    -17      0      0      0      0      0      0      0      0      0      0     67      0      0      0      0      0      0      0      0     94      0      0    170
      9     13     15	    226    103     10     10      4      0      0      0      0      0      0      0      0    -29    100      0      0      0      0      0      3     17      0      0      0      0      0      0     60      0      0      0     29    -29      0      0      0      0      0      0      0      0      0     34      3      0      0      0      0     35      0      0      0      0      0      0      0      0      0      0     -6      0    119      0      0
     12     11     14	    366    123     12     13      8      0      0      0      0      0    275    109      0     74     66      0      0     82      0      0      0      0      0      0      0    226     33      0    238      0      0      0      0      0      0     36      0      0      0     48      0      0     59      0      0      0      0      0      0      0    122      0    178      0      0      0      0      0      0      0      0      0      0      0      0
     10     15     15	    293     95     10     11     10      0      0     29      0     79      0      0      0      0      0      0      0      0      0      0      0      0      0      0      0      0      0      0      0      0      0      0      0      0      0     49      0      0      0      0      0      0      0     74      0      0      0      0      0      0      0    -48      0      0     47      0      0    232      0      0      0    -30    109      0      0
      6     13     12	    359    206     10     10      1    -29      0      0      0      0      0      0      0      0      0      0      0      0      0      0      0      0      0      0      0    131    170    118      0      0      0      0      0     63      0      0      0      0      0      0      0    143    -28     66      0      0     35      0      0      0      0      0     45      0      0      0      0      0      0    158      0      0      0      0      0
      9     14     13	    270     90     10     13     10      0      0      0      0      0      0      0      0      0      0      0      0      0      0    155      0      0    193      0      0      0    140      0      0      0      0      0      0      0      0    -32      0     97      0    134      0      0    -23      0      0      0      0    122      0      0      0      0      0      0      0      0      0      0      0      0     80      0      0      0      0
      7     13     10	    368    154     11     11      2    106      0      0      0     98      0      0      0      0      0      0      0    198     16      0      0      0      0      0      0      0      0      0    211      0      0      0     50      0      0      0      0      0      0    134      0      0      0      0      0      0      0      0    -48      0      0      0      0      0      0      0      0      0     58    189      0     74      0     25    202
     10     10     10	    272     90     11     12      9      0      0      0    139      0      0      0      0     50      0      0      0      0      0      0      0      0      0      0    -53      0      0      0      0      0      0      0      0      0      0      0      0      0      0      0      0      0      0      0      0     67      0    178      0     45      0      0      0    164     -8    -40      0      0      0      0      0      0      0      0      0
      9     14     10	    315    219     11     11      2      0      0      0      0      0      0      0      0      0      0      0    128    -58      0      0      0      0      0      0      0      0      0      0      0      0      0      0      0      0      0      0     26      0      0      0      0      0      0      0      0      0      0      0      0      0      0      0    164      0    212      0      0      0      0    193      0      0      0      0      0
     12     12     13	    300     82     13     13      2      0      0     15      0      0      0      0      0      0      0      0      0      0      0      0      0      0      0      0    214      0      0      0      0      0      0      0      0      0      0      0      0      0     33      0     98      0     77      0    105      0      0      0     47      0      0      0     -8    212      0      0      0      0      0      0      0      0      0      0      0
      7     13     12	    482    218     10     10     10      0      0      0      0    -21      0    127      0      0      0      0      0      0      0      0      0     99      0      0      0      0      0      0      0      0    -32      0     52    185      0    199      0      0      0      0      0      0      0      0      0      0      0      0      0      0      0      0    -40      0      0      0      0      0      0      0      0      0      0      0     27
     10     10     11	    194    120     10     11     10      0      0      0      0      0    144      0      0      0      0    -24    155      0      0     80      0     35      0      0      0      0      0      0     48     86      0      0      0      0      0      0      0    -35      0     99    -38     29      0      0      0      0      0      0      0      0      0      0      0      0      0      0      0    144      0      0      0      0      0    -33     22
     10     13     11	    292    178     10     12      4      0      0     23      0      0      0      0      0      0      0      0      0      0      0    -33      0      0      0      0      0    217      0      0      0    134    228      0      7      0      0      0    -25      0      0      0     -8      0      0      0      0      0      0      0    232      0      0      0      0      0      0      0    144      0      0      0      0      0      0      0      0
      8     14     11	    118     59      9     10     10     61      0      0      0     38      0      1     40      0      0      0      0      0      0      0      0     33      0      0     57      0      0      0      0      0      0      0      0      0      0      0      0      0      0      0      0      0      0      0     15      0      0      0      0      0      0     58      0      0      0      0      0      0      0     36     45     30      0      0    -12
      8     10     12	    450    135      9      9      1      0      0     76    -46      0      0      0      0      0      0      0      0      0    193      0      0      0    202      0      0      0      0    -21    -22      0      0      0      0      0      0      0      0      0     -4      0      0      0    -29      0      0      0      0      0      0    158      0    189      0    193      0      0      0      0     36      0      0     96      0      0      0
     10     12     14	    181    116     11     13      2      0      0     81     87     42      0      0      0      0      0      0      0      0      0      0      0    -15      0      0      0      0      0      0      0      0      0     98     26      0      0     51      0     96      0      0      0      0     85      0     92      0     -6      0      0      0     80      0      0      0      0      0      0      0     45      0      0      0      0      0      0
      8     15     14	    163     97     10     11      7     22    -26      0      0      0      0      0      0    -32      0      0      0      0      0     61      0      0      0      0      0      0      0      0     36      0      0      0    -14    100      0      0      0      0      0      0      0      0      0      0      0     94      0      0    -30      0      0     74      0      0      0      0      0      0     30     96      0      0      0      0      0
     11     10     13	    164     71     12     13      9      0      0      2      0      0      0      0     31      0      0    -31      0    -21      0      0      0      0      0      0      0      0      0      0      0      0    130     90      0      0      0    -26      0     44      0     85      0      0     47      0      0      0    119      0    109      0      0      0      0      0      0      0      0      0      0      0      0      0      0      0      0
      8     15     10	    452    257     11     12      8      0      0      0     99      0      0      0      0      0     39      0      0      0      0      0      0      0      0    118    104      0      0      0      0      0    -56      0      0      0      0      0      0      0      0      0     60      0      0     26     98      0      0      0      0      0      0     25      0      0      0      0    -33      0      0      0      0      0      0      0      0
     11     12     10	    413    114     12     12      6      0      0      0      0      0      0      0      0      0    219      0     44      0      0      0      0    106      0      0      0      0      0     12      0      0    -54      0     89      0      0      0      0      0      0      0      0      0      0      0    101    170      0      0      0      0      0    202      0      0      0     27     22      0    -12      0      0      0      0      0      0